145
100000
14327
9421
28975
583
14805
35718
49485
12192
7828
3082
43607
23557
18127
11558
5791
7728
37592
8489
6784
31402
1780
43579
45332
11823
16849
3709
11702
42819
5852
25672
22852
9528
18590
34687
9746
18340
14936
3846
18943
24961
16344
377
7537
12286
17826
7639
44922
53
10879
23065
6555
27916
14245
23906
28171
19278
23343
789
19412
7314
1663
10192
19098
9902
31890
43282
5577
43446
16132
8
41477
11373
29297
4033
48067
3261
36427
3683
2435
44625
37367
41486
12780
6129
13228
3993
24776
28339
14591
46034
47279
36441
8012
21852
24329
25886
47580
21536
7346
33915
42642
33465
27094
5624
2809
8182
2850
11162
45200
39142
5927
40157
41006
7593
24835
12313
36197
46201
1007
3297
24754
917
39084
3216
13501
43931
25533
23278
40472
39418
23863
2114
13748
37311
49331
2838
19052
2774
31695
3859
45092
33423
15689
10439
40744
